(set-logic QF_UFLIAFS)

(declare-fun l1!16 () Int)
(declare-fun nul!17 () Int)
(declare-fun ths!18 () Int)
(declare-fun tmp171!24 () Bool)
(declare-fun tmp357!27 () Int)

(declare-fun list!19 () (FiniteSet Int))
(declare-fun listContent!23 () (FiniteSet Int))
(declare-fun listContent59!26 () (FiniteSet Int))
(declare-fun listContent73!22 () (FiniteSet Int))
(declare-fun objAlloc!20 () (FiniteSet Int))
(declare-fun objAlloc16!33 () (FiniteSet Int))
(declare-fun objAlloc30!32 () (FiniteSet Int))
(declare-fun objAlloc45!29 () (FiniteSet Int))
(declare-fun objAlloc60!25 () (FiniteSet Int))
(declare-fun objAlloc74!21 () (FiniteSet Int))
(declare-fun objct!28 () (FiniteSet Int))
(declare-fun s142!31 () (FiniteSet Int))
(declare-fun s241!30 () (FiniteSet Int))
(assert
(and (distinct l1!16 nul!17)
     (distinct l1!16 ths!18)
     (distinct ths!18 nul!17)
     (set.in ths!18 list!19)
     (set.in ths!18 objAlloc!20)
     (set.in l1!16 list!19)
     (set.in l1!16 objAlloc!20)
     (= objAlloc74!21 objAlloc!20)
     (= listContent73!22 listContent!23)
     (set.subset objAlloc!20 objAlloc74!21)
     (not tmp171!24)
     (= objAlloc60!25 objAlloc74!21)
     (= listContent59!26 listContent73!22)
     (set.subset objAlloc74!21 objAlloc60!25)
     (set.in tmp357!27 objct!28)
     (set.in tmp357!27 objAlloc60!25)
     (= objAlloc45!29 objAlloc60!25)
     (set.subset objAlloc60!25 objAlloc45!29)
     (= objAlloc45!29 objAlloc!20)
     (= s241!30 (set.difference s142!31 (set.singleton tmp357!27)))
     (<= (set.size (set.difference objAlloc30!32 objAlloc45!29)) 1)
     (set.subset objAlloc45!29 objAlloc30!32)
     (<= (set.size (set.difference objAlloc30!32 objAlloc!20)) 1)
     (set.subset objAlloc30!32 objAlloc16!33)
     (<= (set.size (set.difference objAlloc16!33 objAlloc30!32))
         (set.size s241!30))
     (> (set.size (set.difference objAlloc16!33 objAlloc!20))
        (set.size s142!31)))
)
(check-sat)
